Version identifier: 22.1.0.0 | 2022-03-09 | 1a383f8ce
CPXPARAM_Threads                                 1
CPXPARAM_MIP_Strategy_VariableSelect             3
CPXPARAM_TimeLimit                               599.99802993499998
Found incumbent of value 0.000000 after 0.00 sec. (0.30 ticks)

Root node processing (before b&c):
  Real time             =    0.00 sec. (0.34 ticks)
Sequential b&c:
  Real time             =    0.00 sec. (0.00 ticks)
                          ------------
Total (root+branch&cut) =    0.00 sec. (0.34 ticks)
Version identifier: 22.1.0.0 | 2022-03-09 | 1a383f8ce
CPXPARAM_Threads                                 1
CPXPARAM_MIP_Strategy_VariableSelect             3
CPXPARAM_TimeLimit                               599.98437742700003
Found incumbent of value 0.000000 after 0.00 sec. (0.45 ticks)

Root node processing (before b&c):
  Real time             =    0.00 sec. (0.51 ticks)
Sequential b&c:
  Real time             =    0.00 sec. (0.00 ticks)
                          ------------
Total (root+branch&cut) =    0.00 sec. (0.51 ticks)
Version identifier: 22.1.0.0 | 2022-03-09 | 1a383f8ce
CPXPARAM_Threads                                 1
CPXPARAM_MIP_Strategy_VariableSelect             3
CPXPARAM_TimeLimit                               599.96656867700005
Found incumbent of value 0.000000 after 0.00 sec. (0.53 ticks)

Root node processing (before b&c):
  Real time             =    0.00 sec. (0.59 ticks)
Sequential b&c:
  Real time             =    0.00 sec. (0.00 ticks)
                          ------------
Total (root+branch&cut) =    0.00 sec. (0.59 ticks)
Version identifier: 22.1.0.0 | 2022-03-09 | 1a383f8ce
CPXPARAM_Threads                                 1
CPXPARAM_MIP_Strategy_VariableSelect             3
CPXPARAM_TimeLimit                               599.94632994799997
Found incumbent of value 0.000000 after 0.00 sec. (0.56 ticks)

Root node processing (before b&c):
  Real time             =    0.00 sec. (0.63 ticks)
Sequential b&c:
  Real time             =    0.00 sec. (0.00 ticks)
                          ------------
Total (root+branch&cut) =    0.00 sec. (0.63 ticks)
Version identifier: 22.1.0.0 | 2022-03-09 | 1a383f8ce
CPXPARAM_Threads                                 1
CPXPARAM_MIP_Strategy_VariableSelect             3
CPXPARAM_TimeLimit                               599.924929561
Tried aggregator 1 time.
MIP Presolve eliminated 704 rows and 1384 columns.
Reduced MIP has 1730 rows, 2768 columns, and 19286 nonzeros.
Reduced MIP has 2768 binaries, 0 generals, 0 SOSs, and 0 indicators.
Presolve time = 0.02 sec. (11.12 ticks)
Found incumbent of value 0.000000 after 0.05 sec. (31.13 ticks)

Root node processing (before b&c):
  Real time             =    0.05 sec. (31.28 ticks)
Sequential b&c:
  Real time             =    0.00 sec. (0.00 ticks)
                          ------------
Total (root+branch&cut) =    0.05 sec. (31.28 ticks)
Version identifier: 22.1.0.0 | 2022-03-09 | 1a383f8ce
CPXPARAM_Threads                                 1
CPXPARAM_MIP_Strategy_VariableSelect             3
CPXPARAM_TimeLimit                               599.857693842
Tried aggregator 1 time.
MIP Presolve eliminated 716 rows and 1408 columns.
Reduced MIP has 1760 rows, 2816 columns, and 19622 nonzeros.
Reduced MIP has 2816 binaries, 0 generals, 0 SOSs, and 0 indicators.
Presolve time = 0.02 sec. (11.31 ticks)
Probing time = 0.00 sec. (2.70 ticks)
Tried aggregator 1 time.
Detecting symmetries...
Reduced MIP has 1760 rows, 2816 columns, and 19622 nonzeros.
Reduced MIP has 2816 binaries, 0 generals, 0 SOSs, and 0 indicators.
Presolve time = 0.01 sec. (11.68 ticks)
Probing time = 0.00 sec. (2.70 ticks)
Clique table members: 1053.
MIP emphasis: balance optimality and feasibility.
MIP search method: dynamic search.
Parallel mode: none, using 1 thread.
Root relaxation solution time = 0.02 sec. (19.54 ticks)

        Nodes                                         Cuts/
   Node  Left     Objective  IInf  Best Integer    Best Bound    ItCnt     Gap

      0     0        0.0000   119                      0.0000      544         
*     0+    0                            0.0000        0.0000             0.00%
      0     0        cutoff              0.0000        0.0000      544    0.00%
Elapsed time = 0.16 sec. (132.02 ticks, tree = 0.01 MB, solutions = 1)

Root node processing (before b&c):
  Real time             =    0.16 sec. (132.15 ticks)
Sequential b&c:
  Real time             =    0.00 sec. (0.00 ticks)
                          ------------
Total (root+branch&cut) =    0.16 sec. (132.15 ticks)
Version identifier: 22.1.0.0 | 2022-03-09 | 1a383f8ce
CPXPARAM_Threads                                 1
CPXPARAM_MIP_Strategy_VariableSelect             3
CPXPARAM_TimeLimit                               599.67502835799996
Tried aggregator 1 time.
MIP Presolve eliminated 722 rows and 1420 columns.
Reduced MIP has 1775 rows, 2840 columns, and 19790 nonzeros.
Reduced MIP has 2840 binaries, 0 generals, 0 SOSs, and 0 indicators.
Presolve time = 0.02 sec. (11.39 ticks)
Probing time = 0.00 sec. (2.71 ticks)
Tried aggregator 1 time.
Detecting symmetries...
Reduced MIP has 1775 rows, 2840 columns, and 19790 nonzeros.
Reduced MIP has 2840 binaries, 0 generals, 0 SOSs, and 0 indicators.
Presolve time = 0.01 sec. (11.76 ticks)
Probing time = 0.00 sec. (2.71 ticks)
Clique table members: 1062.
MIP emphasis: balance optimality and feasibility.
MIP search method: dynamic search.
Parallel mode: none, using 1 thread.
Root relaxation solution time = 0.02 sec. (20.88 ticks)

        Nodes                                         Cuts/
   Node  Left     Objective  IInf  Best Integer    Best Bound    ItCnt     Gap

      0     0        0.0000   126                      0.0000      542         
*     0+    0                            0.0000        0.0000             0.00%
      0     0        cutoff              0.0000        0.0000      542    0.00%
Elapsed time = 0.16 sec. (134.18 ticks, tree = 0.01 MB, solutions = 1)

Root node processing (before b&c):
  Real time             =    0.16 sec. (134.31 ticks)
Sequential b&c:
  Real time             =    0.00 sec. (0.00 ticks)
                          ------------
Total (root+branch&cut) =    0.16 sec. (134.31 ticks)
Version identifier: 22.1.0.0 | 2022-03-09 | 1a383f8ce
CPXPARAM_Threads                                 1
CPXPARAM_MIP_Strategy_VariableSelect             3
CPXPARAM_TimeLimit                               599.490357012
Tried aggregator 1 time.
MIP Presolve eliminated 724 rows and 1424 columns.
Reduced MIP has 1780 rows, 2848 columns, and 19846 nonzeros.
Reduced MIP has 2848 binaries, 0 generals, 0 SOSs, and 0 indicators.
Presolve time = 0.02 sec. (11.44 ticks)
Probing time = 0.00 sec. (2.71 ticks)
Tried aggregator 1 time.
Detecting symmetries...
Reduced MIP has 1780 rows, 2848 columns, and 19846 nonzeros.
Reduced MIP has 2848 binaries, 0 generals, 0 SOSs, and 0 indicators.
Presolve time = 0.01 sec. (11.82 ticks)
Probing time = 0.00 sec. (2.71 ticks)
Clique table members: 1065.
MIP emphasis: balance optimality and feasibility.
MIP search method: dynamic search.
Parallel mode: none, using 1 thread.
Root relaxation solution time = 0.02 sec. (19.28 ticks)

        Nodes                                         Cuts/
   Node  Left     Objective  IInf  Best Integer    Best Bound    ItCnt     Gap

      0     0        0.0000   146                      0.0000      516         
*     0+    0                            0.0000        0.0000             0.00%
      0     0        cutoff              0.0000        0.0000      516    0.00%
Elapsed time = 0.13 sec. (107.27 ticks, tree = 0.01 MB, solutions = 1)

Root node processing (before b&c):
  Real time             =    0.13 sec. (107.40 ticks)
Sequential b&c:
  Real time             =    0.00 sec. (0.00 ticks)
                          ------------
Total (root+branch&cut) =    0.13 sec. (107.40 ticks)
Version identifier: 22.1.0.0 | 2022-03-09 | 1a383f8ce
CPXPARAM_Threads                                 1
CPXPARAM_MIP_Strategy_VariableSelect             3
CPXPARAM_TimeLimit                               599.335097969
Tried aggregator 1 time.
MIP Presolve eliminated 726 rows and 1428 columns.
Reduced MIP has 1785 rows, 2856 columns, and 19902 nonzeros.
Reduced MIP has 2856 binaries, 0 generals, 0 SOSs, and 0 indicators.
Presolve time = 0.02 sec. (11.46 ticks)
Probing time = 0.00 sec. (2.71 ticks)
Tried aggregator 1 time.
Detecting symmetries...
Reduced MIP has 1785 rows, 2856 columns, and 19902 nonzeros.
Reduced MIP has 2856 binaries, 0 generals, 0 SOSs, and 0 indicators.
Presolve time = 0.01 sec. (11.84 ticks)
Probing time = 0.00 sec. (2.71 ticks)
Clique table members: 1068.
MIP emphasis: balance optimality and feasibility.
MIP search method: dynamic search.
Parallel mode: none, using 1 thread.
Root relaxation solution time = 0.02 sec. (20.34 ticks)

        Nodes                                         Cuts/
   Node  Left     Objective  IInf  Best Integer    Best Bound    ItCnt     Gap

      0     0        0.0000   136                      0.0000      514         
*     0+    0                            0.0000        0.0000             0.00%
      0     0        cutoff              0.0000        0.0000      514    0.00%
Elapsed time = 0.16 sec. (133.28 ticks, tree = 0.01 MB, solutions = 1)

Root node processing (before b&c):
  Real time             =    0.16 sec. (133.41 ticks)
Sequential b&c:
  Real time             =    0.00 sec. (0.00 ticks)
                          ------------
Total (root+branch&cut) =    0.16 sec. (133.41 ticks)
Primal:	357
Dual:	357
Status:	Optimal
Time:	0.84687
Sequence:
	0
	9
	5
	9
	4
	9
	9
	1
	9
	9
	9
	9
	9
	9
	1
	9
	9
	9
	9
	9
	9
	5
	9
	4
	9
	9
	9
	9
	9
	9
	9
	9
	5
	9
	9
	5
	9
	5
	9
	10
	9
	9
	9
	9
	9
	9
	5
	9
	9
	1
	9
	9
	9
	9
	9
	5
	9
	9
	1
	9
	4
	5
	9
	9
	2
	9
	1
	9
	9
	9
	9
	9
	10
	9
	9
	9
	5
	9
	9
	9
	5
	9
	9
	9
	9
	9
	5
	9
	9
	9
	9
	9
	9
	9
	5
	9
	5
	9
	4
	9
	9
	10
	0
	9
	4
	5
	0
	1
	4
	0
	9
	5
	0
	5
	9
	5
	0
	4
	5
	2
	5
	4
	0
	10
	4
	5
	0
	5
	9
	10
	0
	5
	9
	8
	1
	4
	9
	5
	0
	4
	4
	0
	1
	4
	1
	4
	1
	0
	4
	5
	2
	4
	5
	0
	9
	10
	9
	10
	0
	5
	9
	5
	4
	10
	0
	1
	9
	5
	0
	1
	4
	8
	9
	1
	4
	4
	0
	5
	4
	0
	5
	9
	5
	4
	0
	9
	1
	0
	4
	5
	0
	4
	5
	0
	1
	4
	0
	1
	9
	0
	5
	4
	0
	5
	9
	5
	0
	4
	4
	9
	0
	5
	9
	4
	0
	5
	9
	1
	0
	9
	5
	0
	5
	4
	0
	4
	10
	4
	5
	0
	1
	9
	0
	5
	9
	5
	0
	5
	9
	5
	0
	4
	10
	0
	5
	4
	9
	1
	0
	9
	4
	0
	5
	9
	0
	5
	9
	5
	8
	10
	9
	10
	0
	9
	4
	5
	0
	10
	4
	9
	5
	0
	1
	4
	5
	9
	0
	5
	9
	5
	0
	9
	5
	0
	1
	4
	4
	0
	1
	9
	5
	4
	9
	0
	1
	4
	0
	5
	4
	0
	5
	4
	9
	8
	4
	9
	5
	4
	0
	5
	4
	0
	5
	4
	1
	0
	9
	5
	4
	0
	1
	4
	1
	4
	5
	0
	4
	5
	0
	9
	1
	0
	10
	4
	1
	9
	0
	5
	4
	0
	5
	9
	4
	0
	1
	9
	4
	1
	0
	5
	4
	1
	0
	4
	5
	0
	10
